NAME : X-n317-80-k43
COMMENT : "Generated by Queiroga, Frota, Sadykov, Subramanian, Uchoa and Vidal (2019)" 
TYPE : CVRP
DIMENSION : 317
EDGE_WEIGHT_TYPE : EUC_2D
CAPACITY : 6
NODE_COORD_SECTION
1 -1 0 0
2 0 971 544
3 0 564 976
4 0 266 4
5 0 395 95
6 0 379 271
7 0 936 538
8 0 980 578
9 0 242 92
10 0 476 74
11 0 247 159
12 0 359 108
13 0 473 941
14 0 490 947
15 0 548 950
16 0 389 864
17 0 916 664
18 0 212 91
19 0 415 182
20 0 961 553
21 0 423 232
22 0 596 931
23 0 955 566
24 0 534 93
25 0 252 6
26 0 950 580
27 0 517 950
28 0 942 618
29 0 636 981
30 0 629 809
31 0 508 35
32 0 108 130
33 0 391 19
34 0 208 183
35 0 991 680
36 0 428 48
37 0 272 220
38 0 931 581
39 0 327 128
40 0 966 514
41 0 313 202
42 0 267 1
43 0 404 925
44 0 985 594
45 0 895 429
46 0 348 12
47 0 316 258
48 0 238 20
49 0 970 490
50 0 854 586
51 0 293 104
52 0 628 919
53 0 880 597
54 0 353 241
55 0 753 728
56 0 291 93
57 0 993 439
58 0 382 125
59 0 230 36
60 0 984 471
61 0 489 23
62 0 277 137
63 0 593 171
64 0 378 204
65 0 411 87
66 0 207 85
67 0 538 991
68 0 906 631
69 0 343 72
70 0 445 68
71 0 673 268
72 0 576 951
73 0 388 66
74 0 953 504
75 0 434 145
76 0 530 11
77 0 632 879
78 0 541 968
79 0 353 851
80 0 629 868
81 0 593 896
82 0 936 411
83 0 272 40
84 0 276 93
85 0 469 169
86 0 359 894
87 0 548 998
88 0 52 69
89 0 397 58
90 0 507 145
91 0 451 162
92 0 646 996
93 0 532 906
94 0 220 126
95 0 536 831
96 0 482 212
97 0 137 53
98 0 511 991
99 0 978 506
100 0 300 111
101 0 907 711
102 0 908 488
103 0 222 137
104 0 266 48
105 0 423 67
106 0 268 125
107 0 434 25
108 0 548 982
109 0 511 888
110 0 371 256
111 0 440 179
112 0 331 82
113 0 965 439
114 0 545 968
115 0 447 40
116 0 785 664
117 0 915 669
118 0 468 98
119 0 247 6
120 0 271 70
121 0 260 110
122 0 902 679
123 0 926 874
124 0 587 988
125 0 368 419
126 0 351 158
127 0 967 685
128 0 559 968
129 0 278 56
130 0 877 507
131 0 353 164
132 0 984 540
133 0 380 89
134 0 886 376
135 0 943 408
136 0 420 204
137 0 386 78
138 0 219 18
139 0 497 961
140 0 542 965
141 0 718 869
142 0 297 45
143 0 414 69
144 0 606 959
145 0 575 99
146 0 330 101
147 0 364 74
148 0 257 22
149 0 371 64
150 0 600 994
151 0 951 536
152 0 534 896
153 0 297 96
154 0 467 149
155 0 438 917
156 0 385 883
157 0 233 239
158 0 481 945
159 0 414 128
160 0 602 752
161 0 592 151
162 0 267 82
163 0 587 946
164 0 728 991
165 0 242 136
166 0 292 9
167 0 916 480
168 0 494 918
169 0 2 149
170 0 24 105
171 0 933 577
172 0 227 49
173 0 651 947
174 0 991 512
175 0 805 704
176 0 253 66
177 0 628 824
178 0 199 18
179 0 833 534
180 0 633 864
181 0 343 42
182 0 565 991
183 0 603 996
184 0 404 30
185 0 434 92
186 0 822 465
187 0 393 81
188 0 351 78
189 0 390 56
190 0 536 967
191 0 553 985
192 0 652 868
193 0 472 900
194 0 824 545
195 0 370 189
196 0 196 21
197 0 524 974
198 0 590 878
199 0 551 951
200 0 480 48
201 0 384 185
202 0 327 228
203 0 567 966
204 0 537 964
205 0 929 577
206 0 491 141
207 0 336 12
208 0 496 953
209 0 149 57
210 0 394 63
211 0 250 252
212 0 238 63
213 0 245 222
214 0 263 50
215 0 231 37
216 0 512 13
217 0 868 481
218 0 994 635
219 0 697 87
220 0 989 535
221 0 462 954
222 0 355 240
223 0 335 89
224 0 817 544
225 0 501 154
226 0 196 66
227 0 389 36
228 0 413 62
229 0 277 111
230 0 245 95
231 0 878 469
232 0 407 109
233 0 326 52
234 0 999 601
235 0 974 433
236 0 578 969
237 0 548 784
238 0 519 21
239 0 436 135
240 0 986 436
241 0 483 19
242 0 420 197
243 0 417 122
244 0 825 609
245 0 347 96
246 0 967 530
247 0 749 542
248 0 271 20
249 0 307 72
250 0 420 130
251 0 821 398
252 0 147 97
253 0 950 512
254 0 394 190
255 1 962 584
256 1 934 530
257 1 611 926
258 1 323 185
259 1 966 530
260 1 378 189
261 1 334 189
262 1 340 77
263 1 265 136
264 1 303 315
265 1 533 852
266 1 562 977
267 1 995 477
268 1 862 649
269 1 379 190
270 1 935 565
271 1 178 11
272 1 465 237
273 1 214 179
274 1 479 913
275 1 903 530
276 1 379 102
277 1 268 8
278 1 922 511
279 1 403 33
280 1 289 71
281 1 474 196
282 1 374 90
283 1 557 25
284 1 957 581
285 1 134 103
286 1 554 116
287 1 392 111
288 1 200 392
289 1 929 514
290 1 521 905
291 1 341 210
292 1 394 77
293 1 339 130
294 1 938 635
295 1 315 258
296 1 970 710
297 1 376 48
298 1 402 128
299 1 954 450
300 1 528 302
301 1 433 137
302 1 353 113
303 1 611 991
304 1 235 12
305 1 544 988
306 1 958 520
307 1 521 76
308 1 334 23
309 1 264 63
310 1 591 913
311 1 532 972
312 1 589 956
313 1 568 972
314 1 983 621
315 1 418 817
316 1 312 39
317 1 334 176
DEMAND_SECTION
1 0
2 1
3 1
4 1
5 1
6 1
7 1
8 1
9 1
10 1
11 1
12 1
13 1
14 1
15 1
16 1
17 1
18 1
19 1
20 1
21 1
22 1
23 1
24 1
25 1
26 1
27 1
28 1
29 1
30 1
31 1
32 1
33 1
34 1
35 1
36 1
37 1
38 1
39 1
40 1
41 1
42 1
43 1
44 1
45 1
46 1
47 1
48 1
49 1
50 1
51 1
52 1
53 1
54 1
55 1
56 1
57 1
58 1
59 1
60 1
61 1
62 1
63 1
64 1
65 1
66 1
67 1
68 1
69 1
70 1
71 1
72 1
73 1
74 1
75 1
76 1
77 1
78 1
79 1
80 1
81 1
82 1
83 1
84 1
85 1
86 1
87 1
88 1
89 1
90 1
91 1
92 1
93 1
94 1
95 1
96 1
97 1
98 1
99 1
100 1
101 1
102 1
103 1
104 1
105 1
106 1
107 1
108 1
109 1
110 1
111 1
112 1
113 1
114 1
115 1
116 1
117 1
118 1
119 1
120 1
121 1
122 1
123 1
124 1
125 1
126 1
127 1
128 1
129 1
130 1
131 1
132 1
133 1
134 1
135 1
136 1
137 1
138 1
139 1
140 1
141 1
142 1
143 1
144 1
145 1
146 1
147 1
148 1
149 1
150 1
151 1
152 1
153 1
154 1
155 1
156 1
157 1
158 1
159 1
160 1
161 1
162 1
163 1
164 1
165 1
166 1
167 1
168 1
169 1
170 1
171 1
172 1
173 1
174 1
175 1
176 1
177 1
178 1
179 1
180 1
181 1
182 1
183 1
184 1
185 1
186 1
187 1
188 1
189 1
190 1
191 1
192 1
193 1
194 1
195 1
196 1
197 1
198 1
199 1
200 1
201 1
202 1
203 1
204 1
205 1
206 1
207 1
208 1
209 1
210 1
211 1
212 1
213 1
214 1
215 1
216 1
217 1
218 1
219 1
220 1
221 1
222 1
223 1
224 1
225 1
226 1
227 1
228 1
229 1
230 1
231 1
232 1
233 1
234 1
235 1
236 1
237 1
238 1
239 1
240 1
241 1
242 1
243 1
244 1
245 1
246 1
247 1
248 1
249 1
250 1
251 1
252 1
253 1
254 1
255 1
256 1
257 1
258 1
259 1
260 1
261 1
262 1
263 1
264 1
265 1
266 1
267 1
268 1
269 1
270 1
271 1
272 1
273 1
274 1
275 1
276 1
277 1
278 1
279 1
280 1
281 1
282 1
283 1
284 1
285 1
286 1
287 1
288 1
289 1
290 1
291 1
292 1
293 1
294 1
295 1
296 1
297 1
298 1
299 1
300 1
301 1
302 1
303 1
304 1
305 1
306 1
307 1
308 1
309 1
310 1
311 1
312 1
313 1
314 1
315 1
316 1
317 1
DEPOT_SECTION
1
-1
EOF
